units		metal
atom_style	atomic

lattice		custom 5.6402 &
    basis 0.0 0.0 0.0 &
    basis 0.5 0.5 0.0 &
    basis 0.5 0.0 0.5 &
    basis 0.0 0.5 0.5 &
    basis 0.5 0.5 0.5 &
    basis 0.0 0.0 0.5 &
    basis 0.0 0.5 0.0 &
    basis 0.5 0.0 0.0
region		box block 0 $L 0 $L 0 $L
create_box	2 box
create_atoms	1 box &
    basis 5 2 &
    basis 6 2 &
    basis 7 2 &
    basis 8 2 &

pair_style	allegro
pair_coeff	* * nacl.pth Na Cl
mass            1 22.99
mass            2 35.45

neighbor	1.0 bin
neigh_modify    delay 5 every 1

fix		1 all nvt temp 300 300 $(100*dt)

timestep	0.001

velocity	all create 300 376847 loop geom

compute atomicenergies all pe/atom
compute totalatomicenergy all reduce sum c_atomicenergies

thermo_style custom step time temp pe c_totalatomicenergy etotal press spcpu cpuremain

thermo 1
run 0
write_dump all custom output.dump id type x y z fx fy fz c_atomicenergies modify sort id

run 100000
#
#run 100
#
